p tw 29 37
1 6
2 3
2 7
3 4
3 8
4 5
5 9
6 10
7 8
7 11
8 12
9 14
11 12
12 13
12 16
13 14
13 17
14 18
15 20
16 17
16 22
17 18
17 23
18 24
19 20
19 25
20 21
20 26
21 22
21 27
22 23
23 24
23 28
24 29
25 26
26 27
28 29
